
Gurobi 9.0.0 (mac64, gurobi_cl) logging started Mon Nov 25 10:08:29 2019

Using license file /Users/David/gurobi.lic
Set parameter LogFile to value gurobi.log
Academic license - for non-commercial use only

Gurobi Optimizer version 9.0.0 build v9.0.0rc2 (mac64)
Copyright (c) 2019, Gurobi Optimization, LLC

Read LP format model from file coins.lp
Reading time = 0.00 seconds
: 4 rows, 9 columns, 16 nonzeros
Optimize a model with 4 rows, 9 columns and 16 nonzeros
Model fingerprint: 0xa0c5449c
Variable types: 4 continuous, 5 integer (0 binary)
Coefficient statistics:
  Matrix range     [6e-02, 7e+00]
  Objective range  [1e-02, 1e+00]
  Bounds range     [5e+01, 1e+03]
  RHS range        [0e+00, 0e+00]
Found heuristic solution: objective -0.0000000
Presolve removed 1 rows and 5 columns
Presolve time: 0.01s
Presolved: 3 rows, 4 columns, 9 nonzeros
Variable types: 0 continuous, 4 integer (0 binary)

Root relaxation: objective 1.134615e+02, 2 iterations, 0.00 seconds

    Nodes    |    Current Node    |     Objective Bounds      |     Work
 Expl Unexpl |  Obj  Depth IntInf | Incumbent    BestBd   Gap | It/Node Time

     0     0  113.46154    0    1   -0.00000  113.46154      -     -    0s
H    0     0                     113.4500000  113.46154  0.01%     -    0s
     0     0  113.46154    0    1  113.45000  113.46154  0.01%     -    0s

Explored 1 nodes (2 simplex iterations) in 0.03 seconds
Thread count was 8 (of 8 available processors)

Solution count 2: 113.45 -0 

Optimal solution found (tolerance 1.00e-04)
Best objective 1.134500000000e+02, best bound 1.134500000000e+02, gap 0.0000%

Gurobi 9.0.0 (mac64, gurobi_cl) logging started Mon Nov 25 10:08:49 2019

Using license file /Users/David/gurobi.lic
Set parameter LogFile to value gurobi.log
Academic license - for non-commercial use only

Gurobi Optimizer version 9.0.0 build v9.0.0rc2 (mac64)
Copyright (c) 2019, Gurobi Optimization, LLC

Read LP format model from file coins.lp
Reading time = 0.00 seconds
: 4 rows, 9 columns, 16 nonzeros
Optimize a model with 4 rows, 9 columns and 16 nonzeros
Model fingerprint: 0xa0c5449c
Variable types: 4 continuous, 5 integer (0 binary)
Coefficient statistics:
  Matrix range     [6e-02, 7e+00]
  Objective range  [1e-02, 1e+00]
  Bounds range     [5e+01, 1e+03]
  RHS range        [0e+00, 0e+00]
Found heuristic solution: objective -0.0000000
Presolve removed 1 rows and 5 columns
Presolve time: 0.00s
Presolved: 3 rows, 4 columns, 9 nonzeros
Variable types: 0 continuous, 4 integer (0 binary)

Root relaxation: objective 1.134615e+02, 2 iterations, 0.00 seconds

    Nodes    |    Current Node    |     Objective Bounds      |     Work
 Expl Unexpl |  Obj  Depth IntInf | Incumbent    BestBd   Gap | It/Node Time

     0     0  113.46154    0    1   -0.00000  113.46154      -     -    0s
H    0     0                     113.4500000  113.46154  0.01%     -    0s
     0     0  113.46154    0    1  113.45000  113.46154  0.01%     -    0s

Explored 1 nodes (2 simplex iterations) in 0.00 seconds
Thread count was 8 (of 8 available processors)

Solution count 2: 113.45 -0 

Optimal solution found (tolerance 1.00e-04)
Best objective 1.134500000000e+02, best bound 1.134500000000e+02, gap 0.0000%

Wrote result file 'coins.sol'


Gurobi 9.0.0 (mac64, Python) logging started Mon Nov 25 12:10:36 2019

Using license file /Users/David/gurobi.lic
Set parameter LogFile to value gurobi.log
Academic license - for non-commercial use only

Gurobi 9.0.0 (mac64, Python) logging started Mon Nov 25 12:16:54 2019

Using license file /Users/David/gurobi.lic
Set parameter LogFile to value gurobi.log
Academic license - for non-commercial use only

Gurobi 9.0.0 (mac64, gurobi_cl) logging started Tue Nov 26 16:11:29 2019

Using license file /Users/David/gurobi.lic
Set parameter LogFile to value gurobi.log
Academic license - for non-commercial use only

Gurobi Optimizer version 9.0.0 build v9.0.0rc2 (mac64)
Copyright (c) 2019, Gurobi Optimization, LLC

Error reading LP format file hwGraph.lp at line 2
Malformed term in expression
Neighboring tokens: " + c01 1 [ x00 + x10 + x20 + "


ERROR 10012: Unable to read file


Gurobi 9.0.0 (mac64, gurobi_cl) logging started Tue Nov 26 16:11:48 2019

Using license file /Users/David/gurobi.lic
Set parameter LogFile to value gurobi.log
Academic license - for non-commercial use only

Gurobi Optimizer version 9.0.0 build v9.0.0rc2 (mac64)
Copyright (c) 2019, Gurobi Optimization, LLC

Error reading LP format file hwGraph.lp at line 2
Malformed term in expression
Neighboring tokens: " + 1 c01 [ x00 + x10 + x20 + "


ERROR 10012: Unable to read file


Gurobi 9.0.0 (mac64, gurobi_cl) logging started Tue Nov 26 16:12:01 2019

Using license file /Users/David/gurobi.lic
Set parameter LogFile to value gurobi.log
Academic license - for non-commercial use only

Gurobi Optimizer version 9.0.0 build v9.0.0rc2 (mac64)
Copyright (c) 2019, Gurobi Optimization, LLC

Error reading LP format file hwGraph.lp at line 1
Malformed term in expression
Neighboring tokens: " + c01 1 [ x00 + x10 + x20 + "


ERROR 10012: Unable to read file


Gurobi 9.0.0 (mac64, gurobi_cl) logging started Tue Nov 26 16:13:38 2019

Using license file /Users/David/gurobi.lic
Set parameter LogFile to value gurobi.log
Academic license - for non-commercial use only

Gurobi Optimizer version 9.0.0 build v9.0.0rc2 (mac64)
Copyright (c) 2019, Gurobi Optimization, LLC

Error reading LP format file hwGraph.lp at line 2
Malformed term in expression
Neighboring tokens: " + c01 1 [x00 + x10 + x20 + x30 "


ERROR 10012: Unable to read file


Gurobi 9.0.0 (mac64, gurobi_cl) logging started Tue Nov 26 16:14:18 2019

Using license file /Users/David/gurobi.lic
Set parameter LogFile to value gurobi.log
Academic license - for non-commercial use only

Gurobi Optimizer version 9.0.0 build v9.0.0rc2 (mac64)
Copyright (c) 2019, Gurobi Optimization, LLC

Error reading LP format file hwGraph.lp at line 2
Malformed term in expression
Neighboring tokens: " + c01 1 * [ x00 + x10 + x20 "


ERROR 10012: Unable to read file


Gurobi 9.0.0 (mac64, gurobi_cl) logging started Tue Nov 26 16:14:23 2019

Using license file /Users/David/gurobi.lic
Set parameter LogFile to value gurobi.log
Academic license - for non-commercial use only

Gurobi Optimizer version 9.0.0 build v9.0.0rc2 (mac64)
Copyright (c) 2019, Gurobi Optimization, LLC

Error reading LP format file hwGraph.lp at line 2
Malformed term in expression
Neighboring tokens: " + c01 1 * [ x00 + x10 + x20 "


ERROR 10012: Unable to read file


Gurobi 9.0.0 (mac64, gurobi_cl) logging started Tue Nov 26 16:14:34 2019

Using license file /Users/David/gurobi.lic
Set parameter LogFile to value gurobi.log
Academic license - for non-commercial use only

Gurobi Optimizer version 9.0.0 build v9.0.0rc2 (mac64)
Copyright (c) 2019, Gurobi Optimization, LLC

Error reading LP format file hwGraph.lp at line 2
Malformed term in expression
Neighboring tokens: " + c01 1 [ x00 + x10 + x20 + "


ERROR 10012: Unable to read file


Gurobi 9.0.0 (mac64, gurobi_cl) logging started Tue Nov 26 16:15:04 2019

Using license file /Users/David/gurobi.lic
Set parameter LogFile to value gurobi.log
Academic license - for non-commercial use only

Gurobi Optimizer version 9.0.0 build v9.0.0rc2 (mac64)
Copyright (c) 2019, Gurobi Optimization, LLC

Error reading LP format file hwGraph.lp at line 2
Malformed term in expression
Neighboring tokens: " + c01 1 ( x00 + x10 + x20 + "


ERROR 10012: Unable to read file


Gurobi 9.0.0 (mac64, gurobi_cl) logging started Tue Nov 26 16:17:11 2019

Using license file /Users/David/gurobi.lic
Set parameter LogFile to value gurobi.log
Academic license - for non-commercial use only

Gurobi Optimizer version 9.0.0 build v9.0.0rc2 (mac64)
Copyright (c) 2019, Gurobi Optimization, LLC

Error reading LP format file hwGraph.lp at line 2
Malformed term in expression
Neighboring tokens: " + c01 1 [ x00 ^ 1 + x10 ^ "


ERROR 10012: Unable to read file


Gurobi 9.0.0 (mac64, gurobi_cl) logging started Tue Nov 26 16:17:26 2019

Using license file /Users/David/gurobi.lic
Set parameter LogFile to value gurobi.log
Academic license - for non-commercial use only

Gurobi Optimizer version 9.0.0 build v9.0.0rc2 (mac64)
Copyright (c) 2019, Gurobi Optimization, LLC

Error reading LP format file hwGraph.lp at line 2
Malformed term in expression
Neighboring tokens: " + c01 1 [ x00 ^ 2 + x10 ^ "


ERROR 10012: Unable to read file


Gurobi 9.0.0 (mac64, gurobi_cl) logging started Tue Nov 26 16:17:35 2019

Using license file /Users/David/gurobi.lic
Set parameter LogFile to value gurobi.log
Academic license - for non-commercial use only

Gurobi Optimizer version 9.0.0 build v9.0.0rc2 (mac64)
Copyright (c) 2019, Gurobi Optimization, LLC

Error reading LP format file hwGraph.lp at line 2
Malformed term in expression
Neighboring tokens: " + c01 1 [ x00 ^ 2 + x10 ^ "


ERROR 10012: Unable to read file


Gurobi 9.0.0 (mac64, gurobi_cl) logging started Tue Nov 26 16:19:44 2019

Using license file /Users/David/gurobi.lic
Set parameter LogFile to value gurobi.log
Academic license - for non-commercial use only

Gurobi Optimizer version 9.0.0 build v9.0.0rc2 (mac64)
Copyright (c) 2019, Gurobi Optimization, LLC

Error reading LP format file hwGraph.lp at line 3
Malformed term in expression
Neighboring tokens: " + c01 1 x10 x01 + c11 0 [ "


ERROR 10012: Unable to read file


Gurobi 9.0.0 (mac64, gurobi_cl) logging started Tue Nov 26 16:40:34 2019

Using license file /Users/David/gurobi.lic
Set parameter LogFile to value gurobi.log
Academic license - for non-commercial use only

Gurobi Optimizer version 9.0.0 build v9.0.0rc2 (mac64)
Copyright (c) 2019, Gurobi Optimization, LLC

Error reading LP format file hwGraph.lp at line 2
Malformed term in expression
Neighboring tokens: " + c01 1 x10 x02 + c01 1 x10 x03 "


ERROR 10012: Unable to read file


Gurobi 9.0.0 (mac64, gurobi_cl) logging started Tue Nov 26 16:40:53 2019

Using license file /Users/David/gurobi.lic
Set parameter LogFile to value gurobi.log
Academic license - for non-commercial use only

Gurobi Optimizer version 9.0.0 build v9.0.0rc2 (mac64)
Copyright (c) 2019, Gurobi Optimization, LLC

Error reading LP format file hwGraph.lp at line 2
Malformed term in expression
Neighboring tokens: " + c01 x10 x02 + c01 1 x10 x03 + "


ERROR 10012: Unable to read file


Gurobi 9.0.0 (mac64, gurobi_cl) logging started Tue Nov 26 16:41:09 2019

Using license file /Users/David/gurobi.lic
Set parameter LogFile to value gurobi.log
Academic license - for non-commercial use only

Gurobi Optimizer version 9.0.0 build v9.0.0rc2 (mac64)
Copyright (c) 2019, Gurobi Optimization, LLC

Error reading LP format file hwGraph.lp at line 2
Missing space after opening bracket in quadratic expression
Neighboring tokens: " + [c01 x10 x02] + c01 1 x10 x03 + "


ERROR 10012: Unable to read file


Gurobi 9.0.0 (mac64, gurobi_cl) logging started Tue Nov 26 16:42:43 2019

Using license file /Users/David/gurobi.lic
Set parameter LogFile to value gurobi.log
Academic license - for non-commercial use only

Gurobi Optimizer version 9.0.0 build v9.0.0rc2 (mac64)
Copyright (c) 2019, Gurobi Optimization, LLC

Error reading LP format file hwGraph.lp at line 2
Missing space after opening bracket in quadratic expression
Neighboring tokens: " + [c01 * x10 * x02] + c01 1 x10 "


ERROR 10012: Unable to read file


Gurobi 9.0.0 (mac64, gurobi_cl) logging started Tue Nov 26 16:42:56 2019

Using license file /Users/David/gurobi.lic
Set parameter LogFile to value gurobi.log
Academic license - for non-commercial use only

Gurobi Optimizer version 9.0.0 build v9.0.0rc2 (mac64)
Copyright (c) 2019, Gurobi Optimization, LLC

Error reading LP format file hwGraph.lp at line 2
Missing space after opening bracket in quadratic expression
Neighboring tokens: " + [1 c01 * x10 * x02] + c01 1 "


ERROR 10012: Unable to read file


Gurobi 9.0.0 (mac64, gurobi_cl) logging started Tue Nov 26 17:04:56 2019

Using license file /Users/David/gurobi.lic
Set parameter LogFile to value gurobi.log
Academic license - for non-commercial use only

Gurobi Optimizer version 9.0.0 build v9.0.0rc2 (mac64)
Copyright (c) 2019, Gurobi Optimization, LLC

Error reading LP format file take2.lp at line 7
Unrecognized constraint RHS or sense
Neighboring tokens: " = x01 + x02 + x03 + x04 x01 "


ERROR 10012: Unable to read file


Gurobi 9.0.0 (mac64, gurobi_cl) logging started Tue Nov 26 17:07:06 2019

Using license file /Users/David/gurobi.lic
Set parameter LogFile to value gurobi.log
Academic license - for non-commercial use only

Gurobi Optimizer version 9.0.0 build v9.0.0rc2 (mac64)
Copyright (c) 2019, Gurobi Optimization, LLC

Error reading LP format file take2.lp at line 24
Unrecognized constraint RHS or sense
Neighboring tokens: " >= c01 x01 + x11 + x21 + x31 "


ERROR 10012: Unable to read file


Gurobi 9.0.0 (mac64, gurobi_cl) logging started Tue Nov 26 17:08:11 2019

Using license file /Users/David/gurobi.lic
Set parameter LogFile to value gurobi.log
Academic license - for non-commercial use only

Gurobi Optimizer version 9.0.0 build v9.0.0rc2 (mac64)
Copyright (c) 2019, Gurobi Optimization, LLC

Read LP format model from file take2.lp
Reading time = 0.00 seconds
: 29 rows, 39 columns, 146 nonzeros
Optimize a model with 29 rows, 39 columns and 146 nonzeros
Model fingerprint: 0x908ae935
Variable types: 0 continuous, 39 integer (35 binary)
Coefficient statistics:
  Matrix range     [1e+00, 5e+00]
  Objective range  [7e-01, 2e+00]
  Bounds range     [1e+00, 1e+00]
  RHS range        [1e+00, 4e+00]
Found heuristic solution: objective 2.3400000
Presolve removed 0 rows and 5 columns
Presolve time: 0.01s
Presolved: 29 rows, 34 columns, 136 nonzeros
Variable types: 0 continuous, 34 integer (30 binary)

Root relaxation: objective 0.000000e+00, 9 iterations, 0.00 seconds

    Nodes    |    Current Node    |     Objective Bounds      |     Work
 Expl Unexpl |  Obj  Depth IntInf | Incumbent    BestBd   Gap | It/Node Time

     0     0    0.00000    0    6    2.34000    0.00000   100%     -    0s
H    0     0                       1.3400000    0.00000   100%     -    0s
H    0     0                       0.6700000    0.00000   100%     -    0s

Cutting planes:
  Learned: 1
  MIR: 3
  Zero half: 1
  RLT: 4

Explored 1 nodes (9 simplex iterations) in 0.03 seconds
Thread count was 8 (of 8 available processors)

Solution count 3: 0.67 1.34 2.34 

Optimal solution found (tolerance 1.00e-04)
Best objective 6.700000000000e-01, best bound 6.700000000000e-01, gap 0.0000%

Gurobi 9.0.0 (mac64, gurobi_cl) logging started Tue Nov 26 17:08:53 2019

Using license file /Users/David/gurobi.lic
Set parameter LogFile to value gurobi.log
Academic license - for non-commercial use only

Gurobi Optimizer version 9.0.0 build v9.0.0rc2 (mac64)
Copyright (c) 2019, Gurobi Optimization, LLC

Read LP format model from file take2.lp
Reading time = 0.00 seconds
: 29 rows, 39 columns, 146 nonzeros
Optimize a model with 29 rows, 39 columns and 146 nonzeros
Model fingerprint: 0x908ae935
Variable types: 0 continuous, 39 integer (35 binary)
Coefficient statistics:
  Matrix range     [1e+00, 5e+00]
  Objective range  [7e-01, 2e+00]
  Bounds range     [1e+00, 1e+00]
  RHS range        [1e+00, 4e+00]
Found heuristic solution: objective 2.3400000
Presolve removed 0 rows and 5 columns
Presolve time: 0.01s
Presolved: 29 rows, 34 columns, 136 nonzeros
Variable types: 0 continuous, 34 integer (30 binary)

Root relaxation: objective 0.000000e+00, 9 iterations, 0.00 seconds

    Nodes    |    Current Node    |     Objective Bounds      |     Work
 Expl Unexpl |  Obj  Depth IntInf | Incumbent    BestBd   Gap | It/Node Time

     0     0    0.00000    0    6    2.34000    0.00000   100%     -    0s
H    0     0                       1.3400000    0.00000   100%     -    0s
H    0     0                       0.6700000    0.00000   100%     -    0s

Cutting planes:
  Learned: 1
  MIR: 3
  Zero half: 1
  RLT: 4

Explored 1 nodes (9 simplex iterations) in 0.03 seconds
Thread count was 8 (of 8 available processors)

Solution count 3: 0.67 1.34 2.34 

Optimal solution found (tolerance 1.00e-04)
Best objective 6.700000000000e-01, best bound 6.700000000000e-01, gap 0.0000%

Wrote result file 'take2.sol'


Gurobi 9.0.0 (mac64, gurobi_cl) logging started Tue Nov 26 17:15:03 2019

Using license file /Users/David/gurobi.lic
Set parameter LogFile to value gurobi.log
Academic license - for non-commercial use only

Gurobi Optimizer version 9.0.0 build v9.0.0rc2 (mac64)
Copyright (c) 2019, Gurobi Optimization, LLC

Read LP format model from file take2.lp
Reading time = 0.00 seconds
: 29 rows, 39 columns, 146 nonzeros
Optimize a model with 29 rows, 39 columns and 146 nonzeros
Model fingerprint: 0x64fe744e
Variable types: 0 continuous, 39 integer (35 binary)
Coefficient statistics:
  Matrix range     [1e+00, 5e+00]
  Objective range  [7e-01, 2e+00]
  Bounds range     [1e+00, 1e+00]
  RHS range        [1e+00, 4e+00]
Found heuristic solution: objective 4.3400000
Presolve removed 0 rows and 12 columns
Presolve time: 0.01s
Presolved: 29 rows, 27 columns, 103 nonzeros
Variable types: 0 continuous, 27 integer (23 binary)

Root relaxation: objective 2.005000e+00, 12 iterations, 0.00 seconds

    Nodes    |    Current Node    |     Objective Bounds      |     Work
 Expl Unexpl |  Obj  Depth IntInf | Incumbent    BestBd   Gap | It/Node Time

     0     0    2.00500    0    8    4.34000    2.00500  53.8%     -    0s
H    0     0                       2.0100000    2.00500  0.25%     -    0s
     0     0    2.00500    0    8    2.01000    2.00500  0.25%     -    0s

Explored 1 nodes (12 simplex iterations) in 0.03 seconds
Thread count was 8 (of 8 available processors)

Solution count 2: 2.01 4.34 

Optimal solution found (tolerance 1.00e-04)
Best objective 2.010000000000e+00, best bound 2.010000000000e+00, gap 0.0000%

Wrote result file 'take2.sol'


Gurobi 9.0.0 (mac64, gurobi_cl) logging started Tue Nov 26 17:16:29 2019

Using license file /Users/David/gurobi.lic
Set parameter LogFile to value gurobi.log
Academic license - for non-commercial use only

Gurobi Optimizer version 9.0.0 build v9.0.0rc2 (mac64)
Copyright (c) 2019, Gurobi Optimization, LLC

Read LP format model from file take2.lp
Reading time = 0.00 seconds
: 30 rows, 39 columns, 150 nonzeros
Optimize a model with 30 rows, 39 columns and 150 nonzeros
Model fingerprint: 0x60d9c37a
Variable types: 0 continuous, 39 integer (35 binary)
Coefficient statistics:
  Matrix range     [1e+00, 5e+00]
  Objective range  [7e-01, 2e+00]
  Bounds range     [1e+00, 1e+00]
  RHS range        [1e+00, 4e+00]
Found heuristic solution: objective 4.3400000
Presolve removed 1 rows and 12 columns
Presolve time: 0.00s
Presolved: 29 rows, 27 columns, 103 nonzeros
Variable types: 0 continuous, 27 integer (23 binary)

Root relaxation: objective 2.005000e+00, 12 iterations, 0.00 seconds

    Nodes    |    Current Node    |     Objective Bounds      |     Work
 Expl Unexpl |  Obj  Depth IntInf | Incumbent    BestBd   Gap | It/Node Time

     0     0    2.00500    0    8    4.34000    2.00500  53.8%     -    0s
H    0     0                       2.0100000    2.00500  0.25%     -    0s
     0     0    2.00500    0    8    2.01000    2.00500  0.25%     -    0s

Explored 1 nodes (12 simplex iterations) in 0.00 seconds
Thread count was 8 (of 8 available processors)

Solution count 2: 2.01 4.34 

Optimal solution found (tolerance 1.00e-04)
Best objective 2.010000000000e+00, best bound 2.010000000000e+00, gap 0.0000%

Wrote result file 'take2.sol'


Gurobi 9.0.0 (mac64, gurobi_cl) logging started Tue Nov 26 17:17:28 2019

Using license file /Users/David/gurobi.lic
Set parameter LogFile to value gurobi.log
Academic license - for non-commercial use only

Gurobi Optimizer version 9.0.0 build v9.0.0rc2 (mac64)
Copyright (c) 2019, Gurobi Optimization, LLC

Read LP format model from file take2.lp
Reading time = 0.00 seconds
: 30 rows, 39 columns, 150 nonzeros
Optimize a model with 30 rows, 39 columns and 150 nonzeros
Model fingerprint: 0x79120615
Variable types: 0 continuous, 39 integer (35 binary)
Coefficient statistics:
  Matrix range     [1e+00, 5e+00]
  Objective range  [7e-01, 2e+00]
  Bounds range     [1e+00, 1e+00]
  RHS range        [1e+00, 4e+00]
Found heuristic solution: objective 3.3400000
Presolve removed 1 rows and 13 columns
Presolve time: 0.00s
Presolved: 29 rows, 26 columns, 98 nonzeros
Variable types: 0 continuous, 26 integer (22 binary)

Root relaxation: objective 2.226667e+00, 12 iterations, 0.00 seconds

    Nodes    |    Current Node    |     Objective Bounds      |     Work
 Expl Unexpl |  Obj  Depth IntInf | Incumbent    BestBd   Gap | It/Node Time

     0     0    2.22667    0    8    3.34000    2.22667  33.3%     -    0s
H    0     0                       2.3400000    2.22667  4.84%     -    0s
     0     0    2.22667    0    8    2.34000    2.22667  4.84%     -    0s

Explored 1 nodes (12 simplex iterations) in 0.00 seconds
Thread count was 8 (of 8 available processors)

Solution count 2: 2.34 3.34 

Optimal solution found (tolerance 1.00e-04)
Best objective 2.340000000000e+00, best bound 2.340000000000e+00, gap 0.0000%

Wrote result file 'take2.sol'

